solution status: optimal solution found
objective value:                     214753.148142858
d11(0,0)                                            1 	(obj:0)
d11(1,1)                                            1 	(obj:0)
d11(2,3)                                            1 	(obj:0)
d11(2,5)                                            1 	(obj:0)
d11(3,7)                                            1 	(obj:0)
d11(3,8)                                            1 	(obj:0)
d11(3,9)                                            1 	(obj:0)
d11(3,10)                                           1 	(obj:0)
d11(3,11)                                           1 	(obj:0)
d11(3,12)                                           1 	(obj:0)
d11(3,13)                                           1 	(obj:0)
d11(3,14)                                           1 	(obj:0)
d11(4,15)                                           1 	(obj:0)
d11(4,17)                                           1 	(obj:0)
d11(4,19)                                           1 	(obj:0)
d11(4,21)                                           1 	(obj:0)
d11(4,23)                                           1 	(obj:0)
d11(4,24)                                           1 	(obj:0)
d11(4,25)                                           1 	(obj:0)
d11(4,27)                                           1 	(obj:0)
d11(4,28)                                           1 	(obj:0)
d11(4,29)                                           1 	(obj:0)
d11(4,30)                                           1 	(obj:0)
d11(5,31)                                           1 	(obj:0)
d11(5,35)                                           1 	(obj:0)
d11(5,37)                            1.00000000000001 	(obj:0)
d11(5,39)                                           1 	(obj:0)
d11(5,41)                                           1 	(obj:0)
d11(5,47)                                           1 	(obj:0)
d11(5,49)                                           1 	(obj:0)
d11(5,51)                                           1 	(obj:0)
d11(5,53)                                           1 	(obj:0)
d11(5,59)                                           1 	(obj:0)
d12(2,4)                                            1 	(obj:0)
d12(5,32)                                           1 	(obj:0)
d12(5,34)                                           1 	(obj:0)
d12(5,36)                                           1 	(obj:0)
d12(5,38)                                           1 	(obj:0)
d12(5,40)                                           1 	(obj:0)
d12(5,42)                                           1 	(obj:0)
d12(5,44)                                           1 	(obj:0)
d12(5,46)                                           1 	(obj:0)
d12(5,48)                                           1 	(obj:0)
d12(5,50)                                           1 	(obj:0)
d12(5,52)                                           1 	(obj:0)
d12(5,54)                                           1 	(obj:0)
d12(5,56)                                           1 	(obj:0)
d12(5,58)                                           1 	(obj:0)
d12(5,60)                                           1 	(obj:0)
d12(5,62)                                           1 	(obj:0)
d21(4,15)                                           1 	(obj:0)
d21(4,16)                                           1 	(obj:0)
d21(4,17)                                           1 	(obj:0)
d21(4,19)                                           1 	(obj:0)
d21(4,23)                                           1 	(obj:0)
d21(5,31)                                           1 	(obj:0)
d21(5,32)                                           1 	(obj:0)
d21(5,33)                                           1 	(obj:0)
d21(5,34)                                           1 	(obj:0)
d21(5,35)                                           1 	(obj:0)
d21(5,36)                                           1 	(obj:0)
d21(5,39)                                           1 	(obj:0)
d21(5,40)                                           1 	(obj:0)
d21(5,41)                                           1 	(obj:0)
d21(5,43)                                           1 	(obj:0)
d21(5,47)                                           1 	(obj:0)
d21(5,48)                                           1 	(obj:0)
d21(5,49)                                           1 	(obj:0)
d21(5,55)                                           1 	(obj:0)
y2(5,40)                             1385.48851144895 	(obj:0)
y2(5,42)                             1385.48851144895 	(obj:0)
y2(5,44)                             1385.48851144895 	(obj:0)
y2(5,46)                             1385.48851144895 	(obj:0)
y2(5,48)                             1385.48851144895 	(obj:0)
y2(5,50)                             1385.48851144895 	(obj:0)
y2(5,52)                             1385.48851144895 	(obj:0)
y2(5,54)                             1385.48851144895 	(obj:0)
y2(5,56)                             1385.48851144895 	(obj:0)
y2(5,58)                             1385.48851144895 	(obj:0)
y2(5,60)                             1385.48851144895 	(obj:0)
y2(5,62)                             1385.48851144895 	(obj:0)
STE(1,1)                             8484.75010111116 	(obj:0)
STE(0,0)                                        11025 	(obj:0)
STE(1,2)                                        10143 	(obj:0)
STE(2,3)                             6123.68829150336 	(obj:0)
STE(2,4)                             7602.75010111114 	(obj:0)
STE(2,5)                              7781.9381903922 	(obj:0)
STE(2,6)                                         9261 	(obj:0)
STE(3,7)                             1208.25010111118 	(obj:0)
STE(3,8)                                       2866.5 	(obj:0)
STE(3,9)                             2687.31191071896 	(obj:0)
STE(3,10)                            4345.56180960778 	(obj:0)
STE(3,11)                            2866.50000000002 	(obj:0)
STE(3,12)                            4524.74989888884 	(obj:0)
STE(3,13)                            4345.56180960782 	(obj:0)
STE(3,14)                            6003.81170849664 	(obj:0)
STE(4,15)                           -1331.99979777766 	(obj:0)
STE(4,16)                            326.250101111185 	(obj:0)
STE(4,17)                            326.250101111156 	(obj:0)
STE(4,18)                                      1984.5 	(obj:0)
STE(4,19)                            147.062011830115 	(obj:0)
STE(4,20)                            1805.31191071896 	(obj:0)
STE(4,21)                            1805.31191071893 	(obj:0)
STE(4,22)                            3463.56180960778 	(obj:0)
STE(4,23)                            326.250101111179 	(obj:0)
STE(4,24)                                      1984.5 	(obj:0)
STE(4,25)                                      1984.5 	(obj:0)
STE(4,26)                            3642.74989888884 	(obj:0)
STE(4,27)                            1805.31191071898 	(obj:0)
STE(4,28)                             3463.5618096078 	(obj:0)
STE(4,29)                            3463.56180960779 	(obj:0)
STE(4,30)                            5121.81170849661 	(obj:0)
STE(5,31)                           -2213.99979777766 	(obj:0)
STE(5,32)                           -897.785711901154 	(obj:0)
STE(5,33)                           -555.749898888815 	(obj:0)
STE(5,34)                            760.464186987691 	(obj:0)
STE(5,35)                           -555.749898888844 	(obj:0)
STE(5,36)                            760.464186987662 	(obj:0)
STE(5,37)                                      1102.5 	(obj:0)
STE(5,38)                            2418.71408587651 	(obj:0)
STE(5,39)                           -734.937988169885 	(obj:0)
STE(5,40)                            581.276097706621 	(obj:0)
STE(5,41)                            923.311910719003 	(obj:0)
STE(5,42)                            2239.52599659547 	(obj:0)
STE(5,43)                            923.311910718931 	(obj:0)
STE(5,44)                            2239.52599659544 	(obj:0)
STE(5,45)                            2581.56180960778 	(obj:0)
STE(5,46)                            3897.77589548428 	(obj:0)
STE(5,47)                           -555.749898888821 	(obj:0)
STE(5,48)                            760.464186987685 	(obj:0)
STE(5,49)                            1102.50000000004 	(obj:0)
STE(5,50)                             2418.7140858765 	(obj:0)
STE(5,51)                                      1102.5 	(obj:0)
STE(5,52)                             2418.7140858765 	(obj:0)
STE(5,53)                            2760.74989888884 	(obj:0)
STE(5,54)                            4076.96398476535 	(obj:0)
STE(5,55)                            923.311910718979 	(obj:0)
STE(5,56)                            2239.52599659548 	(obj:0)
STE(5,57)                             2581.5618096078 	(obj:0)
STE(5,58)                             3897.7758954843 	(obj:0)
STE(5,59)                            2581.56180960779 	(obj:0)
STE(5,60)                             3897.7758954843 	(obj:0)
STE(5,61)                            4239.81170849661 	(obj:0)
STE(5,62)                            5556.02579437312 	(obj:0)
AVE(1)                                   3216.9117036 	(obj:0)
AVE(2)                                   3366.1541945 	(obj:0)
AVE(3)                                   3515.3966854 	(obj:0)
AVE(4)                               3515.39406545826 	(obj:0)
WB(5)                                3167.15385943327 	(obj:0)
AVE(5)                               3167.15385943327 	(obj:0)
WG(1)                                    3216.9117036 	(obj:10)
WG(2)                                    3366.1541945 	(obj:10)
WG(3)                                    3515.3966854 	(obj:10)
WG(4)                                3515.39406545826 	(obj:10)
BG(1)                                979.380795379585 	(obj:10)
BG(2)                                 665.57781432353 	(obj:10)
BG(3)                                2862.19118332755 	(obj:10)
BG(4)                                680.898433521331 	(obj:10)
BG(5)                                2673.40993877551 	(obj:10)
y1(1,1)                              1492.42490899996 	(obj:0)
y1(2,3)                              1331.15562864702 	(obj:0)
y1(2,5)                              1331.15562864702 	(obj:0)
y1(3,7)                              3630.09437135296 	(obj:0)
y1(3,8)                              2137.66946235302 	(obj:0)
y1(3,9)                              3630.09437135296 	(obj:0)
y1(3,10)                             2137.66946235302 	(obj:0)
y1(3,11)                             3630.09437135296 	(obj:0)
y1(3,12)                             2137.66946235302 	(obj:0)
y1(3,13)                             3630.09437135296 	(obj:0)
y1(3,14)                             2137.66946235302 	(obj:0)
y1(4,15)                             1492.42490899996 	(obj:0)
y1(4,17)                             1492.42490899996 	(obj:0)
y1(4,19)                             1492.42490899996 	(obj:0)
y1(4,21)                             1492.42490899996 	(obj:0)
y1(4,23)                             1492.42490899996 	(obj:0)
y1(4,25)                             1492.42490899996 	(obj:0)
y1(4,27)                             1492.42490899996 	(obj:0)
y1(4,29)                             1492.42490899996 	(obj:0)
y2(5,32)                             1385.48851144895 	(obj:0)
y2(5,34)                             1385.48851144895 	(obj:0)
y2(5,36)                             1385.48851144895 	(obj:0)
y2(5,38)                             1385.48851144895 	(obj:0)
